13
0 12 9 13 18 1 19 12 2 20 2 4 9
4 0 15 6 18 12 11 10 10 6 2 18 4
15 16 0 14 4 15 6 14 1 2 2 7 19
14 12 13 0 11 12 3 3 10 3 18 19 13
4 7 10 1 0 13 11 15 12 7 12 15 10
16 9 15 1 16 0 13 9 17 20 12 13 8
17 19 18 3 9 10 0 10 2 7 17 16 10
1 16 8 10 17 6 14 0 2 19 5 9 10
3 9 7 2 17 17 15 5 0 2 18 17 10
15 13 16 7 20 6 12 15 14 0 2 12 7
16 1 20 18 4 5 3 15 8 8 0 12 8
16 11 13 13 4 9 2 20 6 16 15 0 12
19 11 2 6 18 18 17 6 19 10 18 3 0